Version identifier: 22.1.0.0 | 2022-03-09 | 1a383f8ce
CPXPARAM_Threads                                 1
CPXPARAM_MIP_Strategy_VariableSelect             3
CPXPARAM_TimeLimit                               599.99998251800002
1 of 1 MIP starts provided solutions.
MIP start 'm1' defined initial solution with objective 1.0000.
Tried aggregator 1 time.
MIP Presolve eliminated 17 rows and 0 columns.
Reduced MIP has 5002 rows, 10000 columns, and 120578 nonzeros.
Reduced MIP has 10000 binaries, 0 generals, 0 SOSs, and 0 indicators.
Presolve time = 0.09 sec. (56.60 ticks)
Probing time = 0.01 sec. (4.72 ticks)
Tried aggregator 1 time.
Detecting symmetries...
Reduced MIP has 5002 rows, 10000 columns, and 120578 nonzeros.
Reduced MIP has 10000 binaries, 0 generals, 0 SOSs, and 0 indicators.
Presolve time = 0.10 sec. (67.21 ticks)
Probing time = 0.01 sec. (4.72 ticks)
Clique table members: 2991.
MIP emphasis: balance optimality and feasibility.
MIP search method: dynamic search.
Parallel mode: none, using 1 thread.
Root relaxation solution time = 4.37 sec. (3663.05 ticks)

        Nodes                                         Cuts/
   Node  Left     Objective  IInf  Best Integer    Best Bound    ItCnt     Gap

*     0+    0                            1.0000    10000.0000              --- 
      0     0      500.0000  2192        1.0000      500.0000     9751     --- 
      0     0      500.0000   552        1.0000    Cliques: 8    13478     --- 
*     0+    0                          500.0000      500.0000             0.00%
      0     0        cutoff            500.0000      500.0000    13478    0.00%
Elapsed time = 61.54 sec. (53598.83 ticks, tree = 0.01 MB, solutions = 2)

Clique cuts applied:  8

Root node processing (before b&c):
  Real time             =   61.55 sec. (53599.23 ticks)
Sequential b&c:
  Real time             =    0.00 sec. (0.00 ticks)
                          ------------
Total (root+branch&cut) =   61.55 sec. (53599.23 ticks)
Primal:	500
Dual:	500
Status:	Optimal
Time:	61.59
Sequence:
	17
	10
	2
	17
	10
	18
	17
	10
	4
	17
	10
	18
	17
	10
	2
	17
	10
	5
	8
	10
	4
	8
	10
	4
	8
	10
	4
	8
	10
	18
	17
	10
	4
	8
	10
	4
	8
	10
	1
	8
	10
	5
	8
	10
	18
	17
	10
	2
	8
	7
	13
	8
	7
	13
	8
	7
	13
	3
	11
	13
	3
	11
	13
	3
	15
	0
	14
	11
	13
	3
	11
	0
	14
	11
	13
	3
	11
	0
	3
	11
	0
	14
	15
	13
	3
	11
	0
	14
	11
	0
	14
	15
	0
	14
	11
	0
	14
	11
	13
	3
	18
	9
	14
	4
	9
	14
	2
	9
	14
	18
	9
	18
	3
	9
	18
	5
	19
	18
	6
	19
	18
	5
	19
	12
	1
	3
	9
	1
	3
	9
	2
	14
	9
	18
	14
	9
	18
	3
	9
	4
	14
	9
	18
	3
	11
	0
	14
	11
	0
	14
	5
	13
	3
	11
	2
	16
	6
	1
	16
	15
	5
	16
	15
	5
	16
	15
	5
	16
	15
	5
	16
	15
	5
	16
	15
	5
	16
	7
	2
	16
	15
	5
	16
	15
	5
	16
	7
	2
	16
	15
	5
	16
	7
	2
	16
	15
	5
	16
	15
	5
	0
	17
	1
	10
	8
	1
	10
	8
	1
	13
	8
	7
	0
	17
	7
	13
	17
	7
	13
	8
	7
	0
	17
	2
	10
	17
	18
	10
	17
	4
	10
	8
	4
	10
	8
	4
	10
	3
	18
	9
	14
	4
	9
	14
	18
	9
	14
	18
	9
	14
	18
	9
	3
	2
	10
	14
	6
	10
	14
	4
	10
	8
	1
	13
	11
	3
	0
	11
	3
	13
	15
	14
	0
	11
	2
	16
	6
	7
	16
	6
	4
	19
	12
	2
	19
	12
	2
	19
	6
	18
	19
	6
	2
	19
	5
	12
	19
	2
	12
	19
	4
	2
	19
	12
	2
	19
	6
	2
	19
	6
	2
	19
	12
	2
	19
	12
	2
	19
	12
	2
	19
	6
	1
	19
	6
	1
	19
	6
	1
	19
	12
	5
	16
	15
	5
	16
	15
	5
	16
	15
	5
	16
	5
	15
	16
	2
	4
	19
	6
	4
	19
	12
	5
	19
	6
	4
	19
	6
	4
	19
	12
	5
	19
	12
	5
	19
	6
	18
	19
	6
	18
	19
	6
	5
	19
	12
	5
	16
	15
	1
	14
	9
	18
	14
	9
	18
	14
	11
	0
	14
	18
	9
	3
	4
	9
	3
	18
	9
	3
	2
	9
	18
	3
	9
	1
	3
	9
	1
	3
	9
	1
	14
	10
	4
	8
	10
	1
	8
	10
	4
	17
	10
	18
	17
	13
	7
	8
	13
	7
	17
	0
	7
	8
	13
	7
	8
	13
	7
	17
	0
	7
	8
	13
	7
	8
	13
	7
	14
	0
	11
	14
	0
	15
	3
	13
	11
	3
	13
	11
	3
	0
	7
	8
	13
	7
	17
	0
	7
	8
	13
	7
	17
	0
	1
	7
	16
	1
	6
	19
	18
	6
	19
	18
	6
	19
	1
	18
	19
	6
	18
	19
	6
	4
	19
	6
	18
	19
	2
	12
	19
